8
0, 687, 821, 586, 878, 1112, 241, 873
687, 0, 481, 375, 374, 444, 456, 676
821, 481, 0, 819, 185, 777, 606, 210
586, 375, 819, 0, 744, 628, 453, 988
878, 374, 185, 744, 0, 599, 643, 390
1112, 444, 777, 628, 599, 0, 892, 987
241, 456, 606, 453, 643, 892, 0, 694
873, 676, 210, 988, 390, 987, 694, 0
